54
2 22 81 
2 82 46 
2 109 10 
3 74 4 11 
2 52 40 
2 1 28 
2 58 103 
2 19 66 
2 25 55 
3 99 39 95 
2 16 91 
2 100 13 
3 90 15 71 
2 43 87 
2 94 73 
2 88 117 
2 118 97 
2 64 85 
3 112 96 116 
3 51 93 119 
3 98 38 57 
3 61 29 104 
3 33 26 106 
3 7 107 92 
3 49 77 47 
3 67 6 84 
1 65 
2 70 76 
1 115 
2 37 114 
1 18 
3 14 108 36 
3 68 45 20 
3 89 69 44 
2 72 21 
1 9 
1 113 
3 102 105 24 
3 101 5 86 
3 3 2 50 
2 12 78 
3 56 35 62 
1 41 
3 42 120 54 
3 30 31 23 
2 63 34 
2 111 32 
1 8 
1 53 
1 110 
3 80 48 79 
1 59 
3 75 27 60 
2 83 17 
